letting n =  10
letting blocks =  [[1, 1], [1, 10], [2, 2], [2, 5], [2, 6], [3, 2], [3, 5], [3, 6], [4, 9], [4, 10], [5, 2], [5, 5], [5, 6], [5, 7], [5, 10], [6, 2], [6, 3], [6, 4], [6, 5], [6, 6], [7, 1], [7, 3], [7, 6], [7, 7], [8, 10], [9, 1], [10, 4], [10, 7]]
